id: 1071
name: gmut-75-50
group: miplib2010
method: 2

Gurobi 7.0.2 (linux64, Matlab) logging started Mon Mar 26 10:14:16 2018


Gurobi 7.0.2 (linux64) logging started Mon Mar 26 10:14:16 2018

Optimize a model with 2565 rows, 68865 columns and 571475 nonzeros
Coefficient statistics:
  Matrix range     [9e-01, 8e+03]
  Objective range  [3e+03, 4e+05]
  Bounds range     [1e+00, 1e+00]
  RHS range        [1e+00, 1e+00]
Presolve removed 66 rows and 32950 columns
Presolve time: 0.13s
Presolved: 2499 rows, 35915 columns, 569806 nonzeros

Ordering time: 0.01s

Barrier statistics:
 AA' NZ     : 1.053e+05
 Factor NZ  : 3.604e+05 (roughly 20 MBytes of memory)
 Factor Ops : 7.444e+07 (less than 1 second per iteration)
 Threads    : 4

                  Objective                Residual
Iter       Primal          Dual         Primal    Dual     Compl     Time
   0  -2.62042950e+10 -3.15544372e+06  3.18e+04 6.93e+04  2.25e+05     0s
   1  -8.44008054e+09 -5.11787412e+07  1.02e+04 5.93e+04  7.44e+04     0s
   2  -1.04783826e+09 -7.08877187e+07  1.26e+03 1.26e+04  1.03e+04     0s
   3  -1.19352028e+08 -3.50304745e+07  1.36e+02 3.40e+03  1.44e+03     0s
   4  -3.59097595e+07 -2.40334093e+07  3.50e+01 2.08e+03  5.40e+02     0s
   5  -2.10868364e+07 -1.68259882e+07  1.71e+01 1.14e+03  2.90e+02     0s
   6  -8.59958647e+06 -8.89542441e+06  1.97e+00 1.92e+02  4.69e+01     0s
   7  -7.02040646e+06 -7.61192692e+06  1.11e-02 6.06e+01  9.88e+00     0s
   8  -7.06322127e+06 -7.39300217e+06  1.01e-07 3.85e+01  6.53e+00     0s
   9  -7.10879667e+06 -7.33584232e+06  7.08e-08 3.26e+01  5.53e+00     0s
  10  -7.52873454e+06 -7.31377464e+06  2.24e-08 2.98e+01  5.35e+00     0s
  11  -7.91107968e+06 -7.35075259e+06  2.14e-08 2.91e+01  5.75e+00     0s
  12  -8.54235086e+06 -7.35355776e+06  2.08e-08 2.90e+01  5.75e+00     0s
  13  -4.83716173e+12 -3.15544372e+06  5.87e+06 6.93e+04  4.13e+07     1s
  14  -2.76366193e+12 -2.30890774e+07  3.35e+06 3.44e+04  1.37e+07     1s
  15  -7.92188828e+11 -3.48025586e+07  9.60e+05 1.20e+04  2.08e+06     1s
  16  -2.63336277e+10 -4.40820625e+07  3.18e+04 1.17e+02  7.01e+04     1s
  17  -1.38487254e+09 -3.99579625e+07  1.66e+03 2.33e-10  4.04e+03     1s
  18  -4.42948555e+08 -3.29963869e+07  5.26e+02 1.75e-10  1.46e+03     1s
  19  -1.37421555e+08 -2.50741949e+07  1.54e+02 1.46e-10  5.34e+02     1s
  20  -3.84994889e+07 -1.80023778e+07  3.07e+01 1.16e-10  1.30e+02     1s
  21  -1.79133260e+07 -1.53320008e+07  5.07e+00 1.16e-10  3.06e+01     1s
  22  -1.60813436e+07 -1.46116890e+07  2.74e+00 1.16e-10  1.42e+01     1s
  23  -1.50618895e+07 -1.44218098e+07  1.36e+00 1.16e-10  8.08e+00     1s
  24  -1.42667026e+07 -1.42948595e+07  2.17e-01 1.16e-10  3.02e+00     1s
  25  -1.41803479e+07 -1.42064944e+07  2.61e-02 1.16e-10  6.68e-01     1s
  26  -1.41811823e+07 -1.41863255e+07  7.50e-04 1.16e-10  7.85e-02     1s
  27  -1.41823023e+07 -1.41823578e+07  3.26e-06 1.16e-10  7.89e-04     1s
  28  -1.41823126e+07 -1.41823129e+07  3.55e-12 1.16e-10  4.18e-06     1s
  29  -1.41823126e+07 -1.41823128e+07  1.25e-10 1.16e-10  1.95e-06     1s
  30  -1.41823126e+07 -1.41823127e+07  1.09e-09 1.16e-10  1.30e-06     1s

Barrier solved model in 30 iterations and 0.81 seconds
Optimal objective -1.41823126e+07

Crossover log...

       0 DPushes remaining with DInf 1.5251782e-09                 1s

    1498 PPushes remaining with PInf 0.0000000e+00                 1s
       0 PPushes remaining with PInf 0.0000000e+00                 1s

  Push phase complete: Pinf 0.0000000e+00, Dinf 9.5961413e-01      1s

Iteration    Objective       Primal Inf.    Dual Inf.      Time
    1618   -1.4182313e+07   0.000000e+00   9.596141e-01      1s
    1917   -1.4182313e+07   0.000000e+00   0.000000e+00      1s

Solved in 1917 iterations and 0.90 seconds
Optimal objective -1.418231266e+07
status: OPTIMAL
